Al32 H24 C36 O16
1.0
12.729660 0.000000 -3.069048
-0.537784 7.172424 -2.230596
0.000000 0.000000 12.711800
Al H C O
32 24 36 16
direct
0.250000 0.000000 0.000000 Al
0.250000 0.000000 1.000000 Al
0.250000 1.000000 0.000000 Al
0.250000 1.000000 1.000000 Al
0.750000 0.000000 0.000000 Al
0.750000 0.000000 1.000000 Al
0.750000 1.000000 0.000000 Al
0.750000 1.000000 1.000000 Al
0.000000 0.000000 0.000000 Al
0.000000 0.000000 1.000000 Al
0.000000 1.000000 0.000000 Al
0.000000 1.000000 1.000000 Al
0.500000 0.000000 0.000000 Al
0.500000 0.000000 1.000000 Al
0.500000 1.000000 0.000000 Al
0.500000 1.000000 1.000000 Al
0.750000 0.000000 0.000000 Al
0.750000 0.000000 1.000000 Al
0.750000 1.000000 0.000000 Al
0.750000 1.000000 1.000000 Al
1.250000 0.000000 0.000000 Al
1.250000 0.000000 1.000000 Al
1.250000 1.000000 0.000000 Al
1.250000 1.000000 1.000000 Al
0.500000 0.000000 0.000000 Al
0.500000 0.000000 1.000000 Al
0.500000 1.000000 0.000000 Al
0.500000 1.000000 1.000000 Al
1.000000 0.000000 0.000000 Al
1.000000 0.000000 1.000000 Al
1.000000 1.000000 -0.000000 Al
1.000000 1.000000 1.000000 Al
0.158391 0.315113 0.168502 H
0.034069 0.269928 0.187160 H
0.282755 0.305068 0.118199 H
0.341609 0.684887 0.831498 H
0.465931 0.730072 0.812840 H
0.217245 0.694932 0.881801 H
0.186140 0.980880 0.667910 H
0.201585 0.885230 0.473730 H
0.389980 0.201440 0.743840 H
0.313860 0.019120 0.332090 H
0.297805 0.118280 0.533530 H
0.110020 0.798560 0.256160 H
0.686140 0.980880 0.667910 H
0.701585 0.885230 0.473730 H
0.889980 0.201440 0.743840 H
0.563860 0.312970 0.332090 H
0.548415 0.411500 0.526270 H
0.860020 0.457600 0.256160 H
0.813860 0.019120 0.332090 H
0.797805 0.118280 0.533530 H
0.610020 0.798560 0.256160 H
0.936140 0.687030 0.667910 H
0.952195 0.584750 0.466470 H
0.641715 0.544270 0.745550 H
0.034300 0.086800 0.711600 C
0.100500 0.004500 0.633000 C
0.114700 0.901700 0.439400 C
0.077000 0.089000 0.826000 C
0.048000 0.961000 0.516000 C
0.435500 0.133000 0.678000 C
0.465700 0.913200 0.288400 C
0.399500 0.995500 0.367000 C
0.385300 0.098300 0.560600 C
0.423000 0.911000 0.174000 C
0.452000 0.039000 0.484000 C
0.064500 0.867000 0.322000 C
0.534300 0.086800 0.711600 C
0.600500 0.004500 0.633000 C
0.614700 0.901700 0.439400 C
0.577000 0.089000 0.826000 C
0.548000 0.961000 0.516000 C
0.935500 0.133000 0.678000 C
0.715700 0.375200 0.288400 C
0.649500 0.371500 0.367000 C
0.635300 0.462300 0.560600 C
0.673000 0.263000 0.174000 C
0.702000 0.445000 0.484000 C
0.814500 0.455000 0.322000 C
0.965700 0.913200 0.288400 C
0.899500 0.995500 0.367000 C
0.885300 0.098300 0.560600 C
0.923000 0.911000 0.174000 C
0.952000 0.039000 0.484000 C
0.564500 0.867000 0.322000 C
0.784300 0.624800 0.711600 C
0.850500 0.628500 0.633000 C
0.864700 0.537700 0.439400 C
0.827000 0.737000 0.826000 C
0.798000 0.555000 0.516000 C
0.685500 0.545000 0.678000 C
0.219500 0.221500 0.093000 O
0.075800 0.206000 0.135600 O
0.280500 0.778500 0.907000 O
0.424200 0.794000 0.864400 O
0.030500 0.128500 0.907000 O
0.174200 0.070400 0.864400 O
0.469500 0.871500 0.093000 O
0.325800 0.929600 0.135600 O
0.530500 0.128500 0.907000 O
0.674200 0.070400 0.864400 O
0.719500 0.221500 0.093000 O
0.575800 0.206000 0.135600 O
0.969500 0.871500 0.093000 O
0.825800 0.929600 0.135600 O
0.780500 0.778500 0.907000 O
0.924200 0.794000 0.864400 O
