Al64 H48 C84 O32
1.0
12.729660 0.000000 -3.069048
-1.075568 14.344847 -4.461192
0.000000 0.000000 12.711800
Al H C O
64 48 84 32
direct
0.250000 0.000000 0.000000 Al
0.250000 0.000000 1.000000 Al
0.250000 0.500000 0.000000 Al
0.250000 0.500000 1.000000 Al
0.750000 0.000000 0.000000 Al
0.750000 0.000000 1.000000 Al
0.750000 0.500000 0.000000 Al
0.750000 0.500000 1.000000 Al
0.000000 0.000000 0.000000 Al
0.000000 0.000000 1.000000 Al
0.000000 0.500000 0.000000 Al
0.000000 0.500000 1.000000 Al
0.500000 0.000000 0.000000 Al
0.500000 0.000000 1.000000 Al
0.500000 0.500000 0.000000 Al
0.500000 0.500000 1.000000 Al
0.250000 0.500000 0.000000 Al
0.250000 0.500000 1.000000 Al
0.250000 1.000000 0.000000 Al
0.250000 1.000000 1.000000 Al
0.750000 0.500000 0.000000 Al
0.750000 0.500000 1.000000 Al
0.750000 1.000000 0.000000 Al
0.750000 1.000000 1.000000 Al
0.000000 0.500000 0.000000 Al
0.000000 0.500000 1.000000 Al
0.000000 1.000000 0.000000 Al
0.000000 1.000000 1.000000 Al
0.500000 0.500000 0.000000 Al
0.500000 0.500000 1.000000 Al
0.500000 1.000000 0.000000 Al
0.500000 1.000000 1.000000 Al
0.750000 0.000000 0.000000 Al
0.750000 0.000000 1.000000 Al
0.750000 0.500000 0.000000 Al
0.750000 0.500000 1.000000 Al
1.250000 0.000000 0.000000 Al
1.250000 0.000000 1.000000 Al
1.250000 0.500000 0.000000 Al
1.250000 0.500000 1.000000 Al
0.500000 0.000000 0.000000 Al
0.500000 0.000000 1.000000 Al
0.500000 0.500000 0.000000 Al
0.500000 0.500000 1.000000 Al
1.000000 0.000000 0.000000 Al
1.000000 0.000000 1.000000 Al
1.000000 0.500000 -0.000000 Al
1.000000 0.500000 1.000000 Al
0.750000 0.500000 0.000000 Al
0.750000 0.500000 1.000000 Al
0.750000 1.000000 0.000000 Al
0.750000 1.000000 1.000000 Al
1.250000 0.500000 0.000000 Al
1.250000 0.500000 1.000000 Al
1.250000 1.000000 0.000000 Al
1.250000 1.000000 1.000000 Al
0.500000 0.500000 0.000000 Al
0.500000 0.500000 1.000000 Al
0.500000 1.000000 0.000000 Al
0.500000 1.000000 1.000000 Al
1.000000 0.500000 -0.000000 Al
1.000000 0.500000 1.000000 Al
1.000000 1.000000 0.000000 Al
1.000000 1.000000 1.000000 Al
0.091609 0.573305 0.831499 H
-0.032755 0.593434 0.881801 H
0.215932 0.541383 0.812840 H
0.908391 0.426695 0.168501 H
1.032755 0.406566 0.118199 H
0.784068 0.458617 0.187160 H
0.389980 0.100720 0.743840 H
0.063860 0.156485 0.332090 H
0.048415 0.205750 0.526270 H
0.360020 0.228800 0.256160 H
0.313860 0.009560 0.332090 H
0.297805 0.059140 0.533530 H
0.436140 0.343515 0.667910 H
0.452195 0.292375 0.466470 H
0.141715 0.272135 0.745550 H
0.186140 0.990440 0.667910 H
0.201585 0.942615 0.473730 H
0.389980 0.600720 0.743840 H
0.063860 0.656485 0.332090 H
0.048415 0.705750 0.526270 H
0.360020 0.728800 0.256160 H
0.313860 0.509560 0.332090 H
0.297805 0.559140 0.533530 H
0.110020 0.899280 0.256160 H
0.436140 0.843515 0.667910 H
0.452195 0.792375 0.466470 H
0.141715 0.772135 0.745550 H
0.686140 0.490440 0.667910 H
0.701585 0.442615 0.473730 H
0.889980 0.100720 0.743840 H
0.563860 0.156485 0.332090 H
0.548415 0.205750 0.526270 H
0.860020 0.228800 0.256160 H
0.813860 0.009560 0.332090 H
0.797805 0.059140 0.533530 H
0.610020 0.399280 0.256160 H
0.936140 0.343515 0.667910 H
0.952195 0.292375 0.466470 H
0.641715 0.272135 0.745550 H
0.686140 0.990440 0.667910 H
0.701585 0.942615 0.473730 H
0.563860 0.656485 0.332090 H
0.548415 0.705750 0.526270 H
0.860020 0.728800 0.256160 H
0.610020 0.899280 0.256160 H
0.936140 0.843515 0.667910 H
0.952195 0.792375 0.466470 H
0.641715 0.772135 0.745550 H
0.034300 0.043400 0.711600 C
0.100500 0.002250 0.633000 C
0.077000 0.044500 0.826000 C
0.435500 0.066500 0.678000 C
0.215700 0.187600 0.288400 C
0.149500 0.185750 0.367000 C
0.135300 0.231150 0.560600 C
0.173000 0.131500 0.174000 C
0.202000 0.222500 0.484000 C
0.314500 0.227500 0.322000 C
0.465700 0.456600 0.288400 C
0.399500 0.497750 0.367000 C
0.385300 0.049150 0.560600 C
0.423000 0.455500 0.174000 C
0.452000 0.019500 0.484000 C
0.284300 0.312400 0.711600 C
0.350500 0.314250 0.633000 C
0.364700 0.268850 0.439400 C
0.327000 0.368500 0.826000 C
0.298000 0.277500 0.516000 C
0.185500 0.272500 0.678000 C
0.114700 0.950850 0.439400 C
0.048000 0.980500 0.516000 C
0.435500 0.566500 0.678000 C
0.215700 0.687600 0.288400 C
0.149500 0.685750 0.367000 C
0.135300 0.731150 0.560600 C
0.173000 0.631500 0.174000 C
0.202000 0.722500 0.484000 C
0.314500 0.727500 0.322000 C
0.465700 0.956600 0.288400 C
0.399500 0.997750 0.367000 C
0.385300 0.549150 0.560600 C
0.423000 0.955500 0.174000 C
0.452000 0.519500 0.484000 C
0.064500 0.933500 0.322000 C
0.284300 0.812400 0.711600 C
0.350500 0.814250 0.633000 C
0.364700 0.768850 0.439400 C
0.327000 0.868500 0.826000 C
0.298000 0.777500 0.516000 C
0.185500 0.772500 0.678000 C
0.534300 0.043400 0.711600 C
0.600500 0.002250 0.633000 C
0.614700 0.450850 0.439400 C
0.577000 0.044500 0.826000 C
0.548000 0.480500 0.516000 C
0.935500 0.066500 0.678000 C
0.715700 0.187600 0.288400 C
0.649500 0.185750 0.367000 C
0.635300 0.231150 0.560600 C
0.673000 0.131500 0.174000 C
0.702000 0.222500 0.484000 C
0.814500 0.227500 0.322000 C
0.885300 0.049150 0.560600 C
0.952000 0.019500 0.484000 C
0.564500 0.433500 0.322000 C
0.784300 0.312400 0.711600 C
0.850500 0.314250 0.633000 C
0.864700 0.268850 0.439400 C
0.827000 0.368500 0.826000 C
0.798000 0.277500 0.516000 C
0.685500 0.272500 0.678000 C
0.534300 0.543400 0.711600 C
0.600500 0.502250 0.633000 C
0.614700 0.950850 0.439400 C
0.577000 0.544500 0.826000 C
0.548000 0.980500 0.516000 C
0.715700 0.687600 0.288400 C
0.649500 0.685750 0.367000 C
0.635300 0.731150 0.560600 C
0.673000 0.631500 0.174000 C
0.702000 0.722500 0.484000 C
0.814500 0.727500 0.322000 C
0.965700 0.956600 0.288400 C
0.899500 0.997750 0.367000 C
0.923000 0.955500 0.174000 C
0.564500 0.933500 0.322000 C
0.784300 0.812400 0.711600 C
0.850500 0.814250 0.633000 C
0.864700 0.768850 0.439400 C
0.827000 0.868500 0.826000 C
0.798000 0.777500 0.516000 C
0.685500 0.772500 0.678000 C
0.174200 0.535200 0.864400 O
0.030500 0.564250 0.907000 O
0.825800 0.464800 0.135600 O
0.969500 0.435750 0.093000 O
0.030500 0.064250 0.907000 O
0.174200 0.035200 0.864400 O
0.219500 0.110750 0.093000 O
0.075800 0.103000 0.135600 O
0.469500 0.435750 0.093000 O
0.325800 0.464800 0.135600 O
0.280500 0.389250 0.907000 O
0.424200 0.397000 0.864400 O
0.219500 0.610750 0.093000 O
0.075800 0.603000 0.135600 O
0.469500 0.935750 0.093000 O
0.325800 0.964800 0.135600 O
0.280500 0.889250 0.907000 O
0.424200 0.897000 0.864400 O
0.530500 0.064250 0.907000 O
0.674200 0.035200 0.864400 O
0.719500 0.110750 0.093000 O
0.575800 0.103000 0.135600 O
0.780500 0.389250 0.907000 O
0.924200 0.397000 0.864400 O
0.530500 0.564250 0.907000 O
0.674200 0.535200 0.864400 O
0.719500 0.610750 0.093000 O
0.575800 0.603000 0.135600 O
0.969500 0.935750 0.093000 O
0.825800 0.964800 0.135600 O
0.780500 0.889250 0.907000 O
0.924200 0.897000 0.864400 O
