Al48 H36 C60 O24
1.0
19.094491 0.000000 -4.603572
-0.537784 7.172424 -2.230596
0.000000 0.000000 12.711800
Al H C O
48 36 60 24
direct
0.166667 0.000000 0.000000 Al
0.166667 0.000000 1.000000 Al
0.166667 1.000000 -0.000000 Al
0.166667 1.000000 1.000000 Al
0.500000 0.000000 0.000000 Al
0.500000 0.000000 1.000000 Al
0.500000 1.000000 0.000000 Al
0.500000 1.000000 1.000000 Al
0.000000 0.000000 0.000000 Al
0.000000 0.000000 1.000000 Al
-0.000000 1.000000 -0.000000 Al
-0.000000 1.000000 1.000000 Al
0.333333 0.000000 0.000000 Al
0.333333 0.000000 1.000000 Al
0.333333 1.000000 -0.000000 Al
0.333333 1.000000 1.000000 Al
0.500000 0.000000 0.000000 Al
0.500000 0.000000 1.000000 Al
0.500000 1.000000 0.000000 Al
0.500000 1.000000 1.000000 Al
0.833333 0.000000 0.000000 Al
0.833333 0.000000 1.000000 Al
0.833333 1.000000 -0.000000 Al
0.833333 1.000000 1.000000 Al
0.333333 0.000000 0.000000 Al
0.333333 0.000000 1.000000 Al
0.333333 1.000000 0.000000 Al
0.333333 1.000000 1.000000 Al
0.666667 0.000000 0.000000 Al
0.666667 0.000000 1.000000 Al
0.666667 1.000000 -0.000000 Al
0.666667 1.000000 1.000000 Al
0.833333 0.000000 0.000000 Al
0.833333 0.000000 1.000000 Al
0.833333 1.000000 -0.000000 Al
0.833333 1.000000 1.000000 Al
1.166667 0.000000 0.000000 Al
1.166667 0.000000 1.000000 Al
1.166667 1.000000 0.000000 Al
1.166667 1.000000 1.000000 Al
0.666667 0.000000 0.000000 Al
0.666667 0.000000 1.000000 Al
0.666667 1.000000 -0.000000 Al
0.666667 1.000000 1.000000 Al
1.000000 0.000000 0.000000 Al
1.000000 0.000000 1.000000 Al
1.000000 1.000000 0.000000 Al
1.000000 1.000000 1.000000 Al
0.061073 0.146609 0.831499 H
-0.021837 0.186868 0.881801 H
0.143954 0.082767 0.812840 H
0.938927 0.853391 0.168501 H
1.021837 0.813132 0.118199 H
0.856046 0.917233 0.187160 H
0.259987 0.201440 0.743840 H
0.042573 0.312970 0.332090 H
0.032277 0.411500 0.526270 H
0.240013 0.457600 0.256160 H
0.209240 0.019120 0.332090 H
0.198537 0.118280 0.533530 H
0.290760 0.687030 0.667910 H
0.301463 0.584750 0.466470 H
0.094477 0.544270 0.745550 H
0.457427 0.980880 0.667910 H
0.467723 0.885230 0.473730 H
0.593320 0.201440 0.743840 H
0.375907 0.312970 0.332090 H
0.365610 0.411500 0.526270 H
0.573347 0.457600 0.256160 H
0.542573 0.019120 0.332090 H
0.531870 0.118280 0.533530 H
0.406680 0.798560 0.256160 H
0.624093 0.687030 0.667910 H
0.634797 0.584750 0.466470 H
0.427810 0.544270 0.745550 H
0.790760 0.980880 0.667910 H
0.801057 0.885230 0.473730 H
0.709240 0.312970 0.332090 H
0.698943 0.411500 0.526270 H
0.906680 0.457600 0.256160 H
0.740013 0.798560 0.256160 H
0.957427 0.687030 0.667910 H
0.968130 0.584750 0.466470 H
0.761143 0.544270 0.745550 H
0.290333 0.133000 0.678000 C
0.143800 0.375200 0.288400 C
0.099667 0.371500 0.367000 C
0.090200 0.462300 0.560600 C
0.115333 0.263000 0.174000 C
0.134667 0.445000 0.484000 C
0.209667 0.455000 0.322000 C
0.310467 0.913200 0.288400 C
0.266333 0.995500 0.367000 C
0.256867 0.098300 0.560600 C
0.282000 0.911000 0.174000 C
0.301333 0.039000 0.484000 C
0.189533 0.624800 0.711600 C
0.233667 0.628500 0.633000 C
0.243133 0.537700 0.439400 C
0.218000 0.737000 0.826000 C
0.198667 0.555000 0.516000 C
0.123667 0.545000 0.678000 C
0.356200 0.086800 0.711600 C
0.400333 0.004500 0.633000 C
0.409800 0.901700 0.439400 C
0.384667 0.089000 0.826000 C
0.365333 0.961000 0.516000 C
0.623667 0.133000 0.678000 C
0.477133 0.375200 0.288400 C
0.433000 0.371500 0.367000 C
0.423533 0.462300 0.560600 C
0.448667 0.263000 0.174000 C
0.468000 0.445000 0.484000 C
0.543000 0.455000 0.322000 C
0.643800 0.913200 0.288400 C
0.599667 0.995500 0.367000 C
0.590200 0.098300 0.560600 C
0.615333 0.911000 0.174000 C
0.634667 0.039000 0.484000 C
0.376333 0.867000 0.322000 C
0.522867 0.624800 0.711600 C
0.567000 0.628500 0.633000 C
0.576467 0.537700 0.439400 C
0.551333 0.737000 0.826000 C
0.532000 0.555000 0.516000 C
0.457000 0.545000 0.678000 C
0.689533 0.086800 0.711600 C
0.733667 0.004500 0.633000 C
0.743133 0.901700 0.439400 C
0.718000 0.089000 0.826000 C
0.698667 0.961000 0.516000 C
0.810467 0.375200 0.288400 C
0.766333 0.371500 0.367000 C
0.756867 0.462300 0.560600 C
0.782000 0.263000 0.174000 C
0.801333 0.445000 0.484000 C
0.876333 0.455000 0.322000 C
0.709667 0.867000 0.322000 C
0.856200 0.624800 0.711600 C
0.900333 0.628500 0.633000 C
0.909800 0.537700 0.439400 C
0.884667 0.737000 0.826000 C
0.865333 0.555000 0.516000 C
0.790333 0.545000 0.678000 C
0.116133 0.070400 0.864400 O
0.020333 0.128500 0.907000 O
0.883867 0.929600 0.135600 O
0.979667 0.871500 0.093000 O
0.146333 0.221500 0.093000 O
0.050533 0.206000 0.135600 O
0.313000 0.871500 0.093000 O
0.217200 0.929600 0.135600 O
0.187000 0.778500 0.907000 O
0.282800 0.794000 0.864400 O
0.353667 0.128500 0.907000 O
0.449467 0.070400 0.864400 O
0.479667 0.221500 0.093000 O
0.383867 0.206000 0.135600 O
0.646333 0.871500 0.093000 O
0.550533 0.929600 0.135600 O
0.520333 0.778500 0.907000 O
0.616133 0.794000 0.864400 O
0.687000 0.128500 0.907000 O
0.782800 0.070400 0.864400 O
0.813000 0.221500 0.093000 O
0.717200 0.206000 0.135600 O
0.853667 0.778500 0.907000 O
0.949467 0.794000 0.864400 O
