Al8
1.0
6.364830 0.000000 -1.534524
-0.537784 7.172424 -2.230596
0.000000 0.000000 12.711800
Al
8
direct
0.000000 0.000000 0.000000 Al
0.000000 0.000000 1.000000 Al
0.000000 1.000000 0.000000 Al
0.000000 1.000000 1.000000 Al
1.000000 0.000000 0.000000 Al
1.000000 0.000000 1.000000 Al
1.000000 1.000000 0.000000 Al
1.000000 1.000000 1.000000 Al
