Zn512 H516 C696 N64 Cl126 O256
1.0
39.161564 0.000000 -30.216215
-4.730059 19.000883 -15.108107
0.000000 0.000000 49.463600
Zn H C N Cl O
512 516 696 64 126 256
direct
0.274455 0.024700 0.498135 Zn
0.274455 0.024700 -0.001865 Zn
0.274455 1.024700 0.498135 Zn
0.274455 1.024700 -0.001865 Zn
-0.225545 0.024700 0.498135 Zn
-0.225545 0.024700 -0.001865 Zn
-0.225545 1.024700 0.498135 Zn
-0.225545 1.024700 -0.001865 Zn
0.014215 0.552640 0.001865 Zn
0.014215 0.552640 0.501865 Zn
0.014215 -0.447360 0.001865 Zn
0.014215 -0.447360 0.501865 Zn
0.514215 0.552640 0.001865 Zn
0.514215 0.552640 0.501865 Zn
0.514215 -0.447360 0.001865 Zn
0.514215 -0.447360 0.501865 Zn
0.151320 0.798910 0.012105 Zn
0.151320 0.798910 0.512105 Zn
0.151320 -0.201090 0.012105 Zn
0.151320 -0.201090 0.512105 Zn
0.651320 0.798910 0.012105 Zn
0.651320 0.798910 0.512105 Zn
0.651320 -0.201090 0.012105 Zn
0.651320 -0.201090 0.512105 Zn
0.387350 0.278430 0.487895 Zn
0.387350 0.278430 -0.012105 Zn
0.387350 1.278430 0.487895 Zn
0.387350 1.278430 -0.012105 Zn
-0.112650 0.278430 0.487895 Zn
-0.112650 0.278430 -0.012105 Zn
-0.112650 1.278430 0.487895 Zn
-0.112650 1.278430 -0.012105 Zn
0.350545 0.197360 0.487895 Zn
0.350545 0.197360 -0.012105 Zn
0.350545 1.197360 0.487895 Zn
0.350545 1.197360 -0.012105 Zn
-0.149455 0.197360 0.487895 Zn
-0.149455 0.197360 -0.012105 Zn
-0.149455 1.197360 0.487895 Zn
-0.149455 1.197360 -0.012105 Zn
0.110785 0.725300 0.012105 Zn
0.110785 0.725300 0.512105 Zn
0.110785 -0.274700 0.012105 Zn
0.110785 -0.274700 0.512105 Zn
0.610785 0.725300 0.012105 Zn
0.610785 0.725300 0.512105 Zn
0.610785 -0.274700 0.012105 Zn
0.610785 -0.274700 0.512105 Zn
0.237650 0.951090 0.001865 Zn
0.237650 0.951090 0.501865 Zn
0.237650 -0.048910 0.001865 Zn
0.237650 -0.048910 0.501865 Zn
0.737650 0.951090 0.001865 Zn
0.737650 0.951090 0.501865 Zn
0.737650 -0.048910 0.001865 Zn
0.737650 -0.048910 0.501865 Zn
0.473680 0.471570 0.498135 Zn
0.473680 0.471570 -0.001865 Zn
0.473680 1.471570 0.498135 Zn
0.473680 1.471570 -0.001865 Zn
-0.026320 0.471570 0.498135 Zn
-0.026320 0.471570 -0.001865 Zn
-0.026320 1.471570 0.498135 Zn
-0.026320 1.471570 -0.001865 Zn
0.360785 0.697360 0.248135 Zn
0.360785 0.697360 0.748135 Zn
0.360785 -0.302640 0.248135 Zn
0.360785 -0.302640 0.748135 Zn
-0.139215 0.697360 0.248135 Zn
-0.139215 0.697360 0.748135 Zn
-0.139215 -0.302640 0.248135 Zn
-0.139215 -0.302640 0.748135 Zn
0.100545 0.225300 0.251865 Zn
0.100545 0.225300 -0.248135 Zn
0.100545 1.225300 0.251865 Zn
0.100545 1.225300 -0.248135 Zn
0.600545 0.225300 0.251865 Zn
0.600545 0.225300 -0.248135 Zn
0.600545 1.225300 0.251865 Zn
0.600545 1.225300 -0.248135 Zn
0.223680 0.451090 0.237895 Zn
0.223680 0.451090 0.737895 Zn
0.223680 1.451090 0.237895 Zn
0.223680 1.451090 0.737895 Zn
0.723680 0.451090 0.237895 Zn
0.723680 0.451090 0.737895 Zn
0.723680 1.451090 0.237895 Zn
0.723680 1.451090 0.737895 Zn
0.487650 0.971570 0.262105 Zn
0.487650 0.971570 -0.237895 Zn
0.487650 -0.028430 0.262105 Zn
0.487650 -0.028430 -0.237895 Zn
-0.012350 0.971570 0.262105 Zn
-0.012350 0.971570 -0.237895 Zn
-0.012350 -0.028430 0.262105 Zn
-0.012350 -0.028430 -0.237895 Zn
0.024455 0.052640 0.262105 Zn
0.024455 0.052640 -0.237895 Zn
0.024455 1.052640 0.262105 Zn
0.024455 1.052640 -0.237895 Zn
0.524455 0.052640 0.262105 Zn
0.524455 0.052640 -0.237895 Zn
0.524455 1.052640 0.262105 Zn
0.524455 1.052640 -0.237895 Zn
0.264215 0.524700 0.237895 Zn
0.264215 0.524700 0.737895 Zn
0.264215 -0.475300 0.237895 Zn
0.264215 -0.475300 0.737895 Zn
-0.235785 0.524700 0.237895 Zn
-0.235785 0.524700 0.737895 Zn
-0.235785 -0.475300 0.237895 Zn
-0.235785 -0.475300 0.737895 Zn
0.137350 0.298910 0.248135 Zn
0.137350 0.298910 0.748135 Zn
0.137350 1.298910 0.248135 Zn
0.137350 1.298910 0.748135 Zn
0.637350 0.298910 0.248135 Zn
0.637350 0.298910 0.748135 Zn
0.637350 1.298910 0.248135 Zn
0.637350 1.298910 0.748135 Zn
0.401320 0.778430 0.251865 Zn
0.401320 0.778430 -0.248135 Zn
0.401320 -0.221570 0.251865 Zn
0.401320 -0.221570 -0.248135 Zn
-0.098680 0.778430 0.251865 Zn
-0.098680 0.778430 -0.248135 Zn
-0.098680 -0.221570 0.251865 Zn
-0.098680 -0.221570 -0.248135 Zn
0.274455 0.024700 0.998135 Zn
0.274455 0.024700 0.498135 Zn
0.274455 1.024700 0.998135 Zn
0.274455 1.024700 0.498135 Zn
-0.225545 0.024700 0.998135 Zn
-0.225545 0.024700 0.498135 Zn
-0.225545 1.024700 0.998135 Zn
-0.225545 1.024700 0.498135 Zn
0.014215 0.552640 0.501865 Zn
0.014215 0.552640 1.001865 Zn
0.014215 -0.447360 0.501865 Zn
0.014215 -0.447360 1.001865 Zn
0.514215 0.552640 0.501865 Zn
0.514215 0.552640 1.001865 Zn
0.514215 -0.447360 0.501865 Zn
0.514215 -0.447360 1.001865 Zn
0.151320 0.798910 0.512105 Zn
0.151320 0.798910 1.012105 Zn
0.151320 -0.201090 0.512105 Zn
0.151320 -0.201090 1.012105 Zn
0.651320 0.798910 0.512105 Zn
0.651320 0.798910 1.012105 Zn
0.651320 -0.201090 0.512105 Zn
0.651320 -0.201090 1.012105 Zn
0.387350 0.278430 0.987895 Zn
0.387350 0.278430 0.487895 Zn
0.387350 1.278430 0.987895 Zn
0.387350 1.278430 0.487895 Zn
-0.112650 0.278430 0.987895 Zn
-0.112650 0.278430 0.487895 Zn
-0.112650 1.278430 0.987895 Zn
-0.112650 1.278430 0.487895 Zn
0.350545 0.197360 0.987895 Zn
0.350545 0.197360 0.487895 Zn
0.350545 1.197360 0.987895 Zn
0.350545 1.197360 0.487895 Zn
-0.149455 0.197360 0.987895 Zn
-0.149455 0.197360 0.487895 Zn
-0.149455 1.197360 0.987895 Zn
-0.149455 1.197360 0.487895 Zn
0.110785 0.725300 0.512105 Zn
0.110785 0.725300 1.012105 Zn
0.110785 -0.274700 0.512105 Zn
0.110785 -0.274700 1.012105 Zn
0.610785 0.725300 0.512105 Zn
0.610785 0.725300 1.012105 Zn
0.610785 -0.274700 0.512105 Zn
0.610785 -0.274700 1.012105 Zn
0.237650 0.951090 0.501865 Zn
0.237650 0.951090 1.001865 Zn
0.237650 -0.048910 0.501865 Zn
0.237650 -0.048910 1.001865 Zn
0.737650 0.951090 0.501865 Zn
0.737650 0.951090 1.001865 Zn
0.737650 -0.048910 0.501865 Zn
0.737650 -0.048910 1.001865 Zn
0.473680 0.471570 0.998135 Zn
0.473680 0.471570 0.498135 Zn
0.473680 1.471570 0.998135 Zn
0.473680 1.471570 0.498135 Zn
-0.026320 0.471570 0.998135 Zn
-0.026320 0.471570 0.498135 Zn
-0.026320 1.471570 0.998135 Zn
-0.026320 1.471570 0.498135 Zn
0.360785 0.697360 0.748135 Zn
0.360785 0.697360 1.248135 Zn
0.360785 -0.302640 0.748135 Zn
0.360785 -0.302640 1.248135 Zn
-0.139215 0.697360 0.748135 Zn
-0.139215 0.697360 1.248135 Zn
-0.139215 -0.302640 0.748135 Zn
-0.139215 -0.302640 1.248135 Zn
0.100545 0.225300 0.751865 Zn
0.100545 0.225300 0.251865 Zn
0.100545 1.225300 0.751865 Zn
0.100545 1.225300 0.251865 Zn
0.600545 0.225300 0.751865 Zn
0.600545 0.225300 0.251865 Zn
0.600545 1.225300 0.751865 Zn
0.600545 1.225300 0.251865 Zn
0.223680 0.451090 0.737895 Zn
0.223680 0.451090 1.237895 Zn
0.223680 1.451090 0.737895 Zn
0.223680 1.451090 1.237895 Zn
0.723680 0.451090 0.737895 Zn
0.723680 0.451090 1.237895 Zn
0.723680 1.451090 0.737895 Zn
0.723680 1.451090 1.237895 Zn
0.487650 0.971570 0.762105 Zn
0.487650 0.971570 0.262105 Zn
0.487650 -0.028430 0.762105 Zn
0.487650 -0.028430 0.262105 Zn
-0.012350 0.971570 0.762105 Zn
-0.012350 0.971570 0.262105 Zn
-0.012350 -0.028430 0.762105 Zn
-0.012350 -0.028430 0.262105 Zn
0.024455 0.052640 0.762105 Zn
0.024455 0.052640 0.262105 Zn
0.024455 1.052640 0.762105 Zn
0.024455 1.052640 0.262105 Zn
0.524455 0.052640 0.762105 Zn
0.524455 0.052640 0.262105 Zn
0.524455 1.052640 0.762105 Zn
0.524455 1.052640 0.262105 Zn
0.264215 0.524700 0.737895 Zn
0.264215 0.524700 1.237895 Zn
0.264215 -0.475300 0.737895 Zn
0.264215 -0.475300 1.237895 Zn
-0.235785 0.524700 0.737895 Zn
-0.235785 0.524700 1.237895 Zn
-0.235785 -0.475300 0.737895 Zn
-0.235785 -0.475300 1.237895 Zn
0.137350 0.298910 0.748135 Zn
0.137350 0.298910 1.248135 Zn
0.137350 1.298910 0.748135 Zn
0.137350 1.298910 1.248135 Zn
0.637350 0.298910 0.748135 Zn
0.637350 0.298910 1.248135 Zn
0.637350 1.298910 0.748135 Zn
0.637350 1.298910 1.248135 Zn
0.401320 0.778430 0.751865 Zn
0.401320 0.778430 0.251865 Zn
0.401320 -0.221570 0.751865 Zn
0.401320 -0.221570 0.251865 Zn
-0.098680 0.778430 0.751865 Zn
-0.098680 0.778430 0.251865 Zn
-0.098680 -0.221570 0.751865 Zn
-0.098680 -0.221570 0.251865 Zn
0.774455 0.024700 0.498135 Zn
0.774455 0.024700 -0.001865 Zn
0.774455 1.024700 0.498135 Zn
0.774455 1.024700 -0.001865 Zn
0.274455 0.024700 0.498135 Zn
0.274455 0.024700 -0.001865 Zn
0.274455 1.024700 0.498135 Zn
0.274455 1.024700 -0.001865 Zn
0.514215 0.552640 0.001865 Zn
0.514215 0.552640 0.501865 Zn
0.514215 -0.447360 0.001865 Zn
0.514215 -0.447360 0.501865 Zn
1.014215 0.552640 0.001865 Zn
1.014215 0.552640 0.501865 Zn
1.014215 -0.447360 0.001865 Zn
1.014215 -0.447360 0.501865 Zn
0.651320 0.798910 0.012105 Zn
0.651320 0.798910 0.512105 Zn
0.651320 -0.201090 0.012105 Zn
0.651320 -0.201090 0.512105 Zn
1.151320 0.798910 0.012105 Zn
1.151320 0.798910 0.512105 Zn
1.151320 -0.201090 0.012105 Zn
1.151320 -0.201090 0.512105 Zn
0.887350 0.278430 0.487895 Zn
0.887350 0.278430 -0.012105 Zn
0.887350 1.278430 0.487895 Zn
0.887350 1.278430 -0.012105 Zn
0.387350 0.278430 0.487895 Zn
0.387350 0.278430 -0.012105 Zn
0.387350 1.278430 0.487895 Zn
0.387350 1.278430 -0.012105 Zn
0.850545 0.197360 0.487895 Zn
0.850545 0.197360 -0.012105 Zn
0.850545 1.197360 0.487895 Zn
0.850545 1.197360 -0.012105 Zn
0.350545 0.197360 0.487895 Zn
0.350545 0.197360 -0.012105 Zn
0.350545 1.197360 0.487895 Zn
0.350545 1.197360 -0.012105 Zn
0.610785 0.725300 0.012105 Zn
0.610785 0.725300 0.512105 Zn
0.610785 -0.274700 0.012105 Zn
0.610785 -0.274700 0.512105 Zn
1.110785 0.725300 0.012105 Zn
1.110785 0.725300 0.512105 Zn
1.110785 -0.274700 0.012105 Zn
1.110785 -0.274700 0.512105 Zn
0.737650 0.951090 0.001865 Zn
0.737650 0.951090 0.501865 Zn
0.737650 -0.048910 0.001865 Zn
0.737650 -0.048910 0.501865 Zn
1.237650 0.951090 0.001865 Zn
1.237650 0.951090 0.501865 Zn
1.237650 -0.048910 0.001865 Zn
1.237650 -0.048910 0.501865 Zn
0.973680 0.471570 0.498135 Zn
0.973680 0.471570 -0.001865 Zn
0.973680 1.471570 0.498135 Zn
0.973680 1.471570 -0.001865 Zn
0.473680 0.471570 0.498135 Zn
0.473680 0.471570 -0.001865 Zn
0.473680 1.471570 0.498135 Zn
0.473680 1.471570 -0.001865 Zn
0.860785 0.697360 0.248135 Zn
0.860785 0.697360 0.748135 Zn
0.860785 -0.302640 0.248135 Zn
0.860785 -0.302640 0.748135 Zn
0.360785 0.697360 0.248135 Zn
0.360785 0.697360 0.748135 Zn
0.360785 -0.302640 0.248135 Zn
0.360785 -0.302640 0.748135 Zn
0.600545 0.225300 0.251865 Zn
0.600545 0.225300 -0.248135 Zn
0.600545 1.225300 0.251865 Zn
0.600545 1.225300 -0.248135 Zn
1.100545 0.225300 0.251865 Zn
1.100545 0.225300 -0.248135 Zn
1.100545 1.225300 0.251865 Zn
1.100545 1.225300 -0.248135 Zn
0.723680 0.451090 0.237895 Zn
0.723680 0.451090 0.737895 Zn
0.723680 1.451090 0.237895 Zn
0.723680 1.451090 0.737895 Zn
1.223680 0.451090 0.237895 Zn
1.223680 0.451090 0.737895 Zn
1.223680 1.451090 0.237895 Zn
1.223680 1.451090 0.737895 Zn
0.987650 0.971570 0.262105 Zn
0.987650 0.971570 -0.237895 Zn
0.987650 -0.028430 0.262105 Zn
0.987650 -0.028430 -0.237895 Zn
0.487650 0.971570 0.262105 Zn
0.487650 0.971570 -0.237895 Zn
0.487650 -0.028430 0.262105 Zn
0.487650 -0.028430 -0.237895 Zn
0.524455 0.052640 0.262105 Zn
0.524455 0.052640 -0.237895 Zn
0.524455 1.052640 0.262105 Zn
0.524455 1.052640 -0.237895 Zn
1.024455 0.052640 0.262105 Zn
1.024455 0.052640 -0.237895 Zn
1.024455 1.052640 0.262105 Zn
1.024455 1.052640 -0.237895 Zn
0.764215 0.524700 0.237895 Zn
0.764215 0.524700 0.737895 Zn
0.764215 -0.475300 0.237895 Zn
0.764215 -0.475300 0.737895 Zn
0.264215 0.524700 0.237895 Zn
0.264215 0.524700 0.737895 Zn
0.264215 -0.475300 0.237895 Zn
0.264215 -0.475300 0.737895 Zn
0.637350 0.298910 0.248135 Zn
0.637350 0.298910 0.748135 Zn
0.637350 1.298910 0.248135 Zn
0.637350 1.298910 0.748135 Zn
1.137350 0.298910 0.248135 Zn
1.137350 0.298910 0.748135 Zn
1.137350 1.298910 0.248135 Zn
1.137350 1.298910 0.748135 Zn
0.901320 0.778430 0.251865 Zn
0.901320 0.778430 -0.248135 Zn
0.901320 -0.221570 0.251865 Zn
0.901320 -0.221570 -0.248135 Zn
0.401320 0.778430 0.251865 Zn
0.401320 0.778430 -0.248135 Zn
0.401320 -0.221570 0.251865 Zn
0.401320 -0.221570 -0.248135 Zn
0.774455 0.024700 0.998135 Zn
0.774455 0.024700 0.498135 Zn
0.774455 1.024700 0.998135 Zn
0.774455 1.024700 0.498135 Zn
0.274455 0.024700 0.998135 Zn
0.274455 0.024700 0.498135 Zn
0.274455 1.024700 0.998135 Zn
0.274455 1.024700 0.498135 Zn
0.514215 0.552640 0.501865 Zn
0.514215 0.552640 1.001865 Zn
0.514215 -0.447360 0.501865 Zn
0.514215 -0.447360 1.001865 Zn
1.014215 0.552640 0.501865 Zn
1.014215 0.552640 1.001865 Zn
1.014215 -0.447360 0.501865 Zn
1.014215 -0.447360 1.001865 Zn
0.651320 0.798910 0.512105 Zn
0.651320 0.798910 1.012105 Zn
0.651320 -0.201090 0.512105 Zn
0.651320 -0.201090 1.012105 Zn
1.151320 0.798910 0.512105 Zn
1.151320 0.798910 1.012105 Zn
1.151320 -0.201090 0.512105 Zn
1.151320 -0.201090 1.012105 Zn
0.887350 0.278430 0.987895 Zn
0.887350 0.278430 0.487895 Zn
0.887350 1.278430 0.987895 Zn
0.887350 1.278430 0.487895 Zn
0.387350 0.278430 0.987895 Zn
0.387350 0.278430 0.487895 Zn
0.387350 1.278430 0.987895 Zn
0.387350 1.278430 0.487895 Zn
0.850545 0.197360 0.987895 Zn
0.850545 0.197360 0.487895 Zn
0.850545 1.197360 0.987895 Zn
0.850545 1.197360 0.487895 Zn
0.350545 0.197360 0.987895 Zn
0.350545 0.197360 0.487895 Zn
0.350545 1.197360 0.987895 Zn
0.350545 1.197360 0.487895 Zn
0.610785 0.725300 0.512105 Zn
0.610785 0.725300 1.012105 Zn
0.610785 -0.274700 0.512105 Zn
0.610785 -0.274700 1.012105 Zn
1.110785 0.725300 0.512105 Zn
1.110785 0.725300 1.012105 Zn
1.110785 -0.274700 0.512105 Zn
1.110785 -0.274700 1.012105 Zn
0.737650 0.951090 0.501865 Zn
0.737650 0.951090 1.001865 Zn
0.737650 -0.048910 0.501865 Zn
0.737650 -0.048910 1.001865 Zn
1.237650 0.951090 0.501865 Zn
1.237650 0.951090 1.001865 Zn
1.237650 -0.048910 0.501865 Zn
1.237650 -0.048910 1.001865 Zn
0.973680 0.471570 0.998135 Zn
0.973680 0.471570 0.498135 Zn
0.973680 1.471570 0.998135 Zn
0.973680 1.471570 0.498135 Zn
0.473680 0.471570 0.998135 Zn
0.473680 0.471570 0.498135 Zn
0.473680 1.471570 0.998135 Zn
0.473680 1.471570 0.498135 Zn
0.860785 0.697360 0.748135 Zn
0.860785 0.697360 1.248135 Zn
0.860785 -0.302640 0.748135 Zn
0.860785 -0.302640 1.248135 Zn
0.360785 0.697360 0.748135 Zn
0.360785 0.697360 1.248135 Zn
0.360785 -0.302640 0.748135 Zn
0.360785 -0.302640 1.248135 Zn
0.600545 0.225300 0.751865 Zn
0.600545 0.225300 0.251865 Zn
0.600545 1.225300 0.751865 Zn
0.600545 1.225300 0.251865 Zn
1.100545 0.225300 0.751865 Zn
1.100545 0.225300 0.251865 Zn
1.100545 1.225300 0.751865 Zn
1.100545 1.225300 0.251865 Zn
0.723680 0.451090 0.737895 Zn
0.723680 0.451090 1.237895 Zn
0.723680 1.451090 0.737895 Zn
0.723680 1.451090 1.237895 Zn
1.223680 0.451090 0.737895 Zn
1.223680 0.451090 1.237895 Zn
1.223680 1.451090 0.737895 Zn
1.223680 1.451090 1.237895 Zn
0.987650 0.971570 0.762105 Zn
0.987650 0.971570 0.262105 Zn
0.987650 -0.028430 0.762105 Zn
0.987650 -0.028430 0.262105 Zn
0.487650 0.971570 0.762105 Zn
0.487650 0.971570 0.262105 Zn
0.487650 -0.028430 0.762105 Zn
0.487650 -0.028430 0.262105 Zn
0.524455 0.052640 0.762105 Zn
0.524455 0.052640 0.262105 Zn
0.524455 1.052640 0.762105 Zn
0.524455 1.052640 0.262105 Zn
1.024455 0.052640 0.762105 Zn
1.024455 0.052640 0.262105 Zn
1.024455 1.052640 0.762105 Zn
1.024455 1.052640 0.262105 Zn
0.764215 0.524700 0.737895 Zn
0.764215 0.524700 1.237895 Zn
0.764215 -0.475300 0.737895 Zn
0.764215 -0.475300 1.237895 Zn
0.264215 0.524700 0.737895 Zn
0.264215 0.524700 1.237895 Zn
0.264215 -0.475300 0.737895 Zn
0.264215 -0.475300 1.237895 Zn
0.637350 0.298910 0.748135 Zn
0.637350 0.298910 1.248135 Zn
0.637350 1.298910 0.748135 Zn
0.637350 1.298910 1.248135 Zn
1.137350 0.298910 0.748135 Zn
1.137350 0.298910 1.248135 Zn
1.137350 1.298910 0.748135 Zn
1.137350 1.298910 1.248135 Zn
0.901320 0.778430 0.751865 Zn
0.901320 0.778430 0.251865 Zn
0.901320 -0.221570 0.751865 Zn
0.901320 -0.221570 0.251865 Zn
0.401320 0.778430 0.751865 Zn
0.401320 0.778430 0.251865 Zn
0.401320 -0.221570 0.751865 Zn
0.401320 -0.221570 0.251865 Zn
0.131797 0.885431 0.072020 H
0.116351 0.830332 0.078818 H
0.147069 0.924878 0.057793 H
0.117602 0.137796 0.190059 H
0.130260 0.192215 0.180554 H
0.105244 0.099184 0.206806 H
0.105100 0.585010 0.495465 H
0.126375 0.657420 0.053870 H
0.031835 0.666667 0.457105 H
0.052375 0.591620 0.440960 H
0.009135 0.245060 0.331590 H
0.360835 0.582520 0.352410 H
0.099675 0.756570 0.075090 H
0.058965 0.760430 0.032710 H
0.297040 0.219270 0.004535 H
0.274840 0.145010 0.446130 H
0.376215 0.149460 0.042895 H
0.354850 0.222830 0.059040 H
0.290940 0.355100 0.168410 H
0.438850 0.016850 0.147590 H
0.303190 0.049170 0.424910 H
0.347500 0.052510 0.467290 H
0.167505 0.844080 0.437400 H
0.203710 0.799680 0.452335 H
0.208320 0.002430 0.051485 H
0.170810 0.959700 0.493435 H
0.497530 0.831880 0.363390 H
0.253285 0.856380 0.028610 H
0.255215 0.945000 0.071245 H
0.484635 0.460200 0.062600 H
0.447505 0.502750 0.047665 H
0.449730 0.313670 0.448515 H
0.486415 0.354750 0.006565 H
0.052550 0.268270 0.136610 H
0.383425 0.971670 0.319575 H
0.399585 0.449350 0.471390 H
0.401255 0.367930 0.428755 H
0.327960 0.164990 0.062600 H
0.350160 0.092580 0.047665 H
0.248785 0.083360 0.448515 H
0.270150 0.158380 0.006565 H
0.334060 0.504940 0.136610 H
0.186150 0.167480 0.319575 H
0.321810 0.993430 0.471390 H
0.277500 0.989570 0.428755 H
0.019900 0.530730 0.437400 H
0.498625 0.604990 0.452335 H
0.093165 0.600540 0.051485 H
0.072625 0.527170 0.493435 H
0.115865 0.394900 0.363390 H
0.264165 0.733150 0.180425 H
0.025325 0.700830 0.028610 H
0.066035 0.697490 0.071245 H
0.140365 0.905920 0.495465 H
0.177495 0.950320 0.053870 H
0.175270 0.747570 0.457105 H
0.138585 0.790300 0.440960 H
0.072450 0.918120 0.331590 H
0.241575 0.622300 0.352410 H
0.225415 0.893620 0.075090 H
0.223745 0.805000 0.032710 H
0.234635 0.344080 0.254535 H
0.197505 0.299680 0.196130 H
0.199730 0.502430 0.292895 H
0.236415 0.459700 0.309040 H
0.302550 0.331880 0.418410 H
0.133425 0.627700 0.397590 H
0.457495 0.289800 0.004535 H
0.421290 0.247250 0.446130 H
0.416680 0.436330 0.042895 H
0.454190 0.395250 0.059040 H
0.127470 0.481730 0.168410 H
0.458740 0.778330 0.147590 H
0.371715 0.300650 0.424910 H
0.369785 0.382070 0.467290 H
0.269900 0.664990 0.254535 H
0.248625 0.592580 0.196130 H
0.343165 0.583360 0.292895 H
0.322625 0.658380 0.309040 H
0.365865 0.004940 0.418410 H
0.014165 0.667480 0.397590 H
0.275325 0.493430 0.174910 H
0.316035 0.489570 0.217290 H
0.077960 0.030730 0.245465 H
0.100160 0.104990 0.303870 H
0.498785 0.100540 0.207105 H
0.020150 0.027170 0.190960 H
0.436150 0.233150 0.102410 H
0.071810 0.200830 0.325090 H
0.027500 0.197490 0.282710 H
0.207495 0.405920 0.312600 H
0.171290 0.450320 0.297665 H
0.166667 0.247570 0.198515 H
0.204190 0.290300 0.256565 H
0.377470 0.418120 0.386610 H
0.208740 0.122300 0.069575 H
0.121715 0.393620 0.221390 H
0.119785 0.305000 0.178755 H
0.390365 0.789800 0.187400 H
0.427495 0.747250 0.202335 H
0.425270 0.936330 0.301485 H
0.388585 0.895250 0.243435 H
0.322450 0.981730 0.113390 H
0.491575 0.278330 0.430425 H
0.475415 0.800650 0.278610 H
0.473745 0.882070 0.321245 H
0.047040 0.085010 0.187400 H
0.024840 0.157420 0.202335 H
0.126215 0.166640 0.301485 H
0.104850 0.091620 0.243435 H
0.040940 0.745060 0.113390 H
0.188850 0.082520 0.430425 H
0.053190 0.256570 0.278610 H
0.097500 0.260430 0.321245 H
0.355100 0.719270 0.312600 H
0.376375 0.645010 0.297665 H
0.281835 0.649460 0.198515 H
0.302375 0.722830 0.256565 H
0.259135 0.855100 0.386610 H
0.110835 0.516850 0.069575 H
0.349675 0.549170 0.221390 H
0.308965 0.552510 0.178755 H
0.149585 0.356380 0.174910 H
0.151255 0.445000 0.217290 H
0.417505 0.960200 0.245465 H
0.453710 0.002750 0.303870 H
0.458320 0.813670 0.207105 H
0.420810 0.854750 0.190960 H
0.247530 0.768270 0.081590 H
0.416260 0.471670 0.102410 H
0.003285 0.949350 0.325090 H
0.005215 0.867930 0.282710 H
0.105100 0.585010 0.995465 H
0.126375 0.657420 0.553870 H
0.031835 0.666667 0.957105 H
0.052375 0.591620 0.940960 H
0.009135 0.245060 0.831590 H
0.360835 0.582520 0.852410 H
0.099675 0.756570 0.575090 H
0.058965 0.760430 0.532710 H
0.297040 0.219270 0.504535 H
0.274840 0.145010 0.946130 H
0.376215 0.149460 0.542895 H
0.354850 0.222830 0.559040 H
0.290940 0.355100 0.668410 H
0.438850 0.016850 0.647590 H
0.303190 0.049170 0.924910 H
0.347500 0.052510 0.967290 H
0.167505 0.844080 0.937400 H
0.203710 0.799680 0.952335 H
0.208320 0.002430 0.551485 H
0.170810 0.959700 0.993435 H
0.497530 0.831880 0.863390 H
0.166260 0.127700 0.680425 H
0.253285 0.856380 0.528610 H
0.255215 0.945000 0.571245 H
0.484635 0.460200 0.562600 H
0.447505 0.502750 0.547665 H
0.449730 0.313670 0.948515 H
0.486415 0.354750 0.506565 H
0.052550 0.268270 0.636610 H
0.383425 0.971670 0.819575 H
0.399585 0.449350 0.971390 H
0.401255 0.367930 0.928755 H
0.327960 0.164990 0.562600 H
0.350160 0.092580 0.547665 H
0.248785 0.083360 0.948515 H
0.270150 0.158380 0.506565 H
0.334060 0.504940 0.636610 H
0.186150 0.167480 0.819575 H
0.321810 0.993430 0.971390 H
0.277500 0.989570 0.928755 H
0.019900 0.530730 0.937400 H
0.498625 0.604990 0.952335 H
0.093165 0.600540 0.551485 H
0.072625 0.527170 0.993435 H
0.115865 0.394900 0.863390 H
0.264165 0.733150 0.680425 H
0.025325 0.700830 0.528610 H
0.066035 0.697490 0.571245 H
0.140365 0.905920 0.995465 H
0.177495 0.950320 0.553870 H
0.175270 0.747570 0.957105 H
0.138585 0.790300 0.940960 H
0.072450 0.918120 0.831590 H
0.241575 0.622300 0.852410 H
0.225415 0.893620 0.575090 H
0.223745 0.805000 0.532710 H
0.234635 0.344080 0.754535 H
0.197505 0.299680 0.696130 H
0.199730 0.502430 0.792895 H
0.236415 0.459700 0.809040 H
0.302550 0.331880 0.918410 H
0.133425 0.627700 0.897590 H
0.457495 0.289800 0.504535 H
0.421290 0.247250 0.946130 H
0.416680 0.436330 0.542895 H
0.454190 0.395250 0.559040 H
0.127470 0.481730 0.668410 H
0.458740 0.778330 0.647590 H
0.371715 0.300650 0.924910 H
0.369785 0.382070 0.967290 H
0.269900 0.664990 0.754535 H
0.248625 0.592580 0.696130 H
0.343165 0.583360 0.792895 H
0.322625 0.658380 0.809040 H
0.365865 0.004940 0.918410 H
0.014165 0.667480 0.897590 H
0.275325 0.493430 0.674910 H
0.316035 0.489570 0.717290 H
0.077960 0.030730 0.745465 H
0.100160 0.104990 0.803870 H
0.498785 0.100540 0.707105 H
0.020150 0.027170 0.690960 H
0.084060 0.894900 0.581590 H
0.436150 0.233150 0.602410 H
0.071810 0.200830 0.825090 H
0.027500 0.197490 0.782710 H
0.207495 0.405920 0.812600 H
0.171290 0.450320 0.797665 H
0.166667 0.247570 0.698515 H
0.204190 0.290300 0.756565 H
0.377470 0.418120 0.886610 H
0.208740 0.122300 0.569575 H
0.121715 0.393620 0.721390 H
0.119785 0.305000 0.678755 H
0.390365 0.789800 0.687400 H
0.427495 0.747250 0.702335 H
0.425270 0.936330 0.801485 H
0.388585 0.895250 0.743435 H
0.322450 0.981730 0.613390 H
0.491575 0.278330 0.930425 H
0.475415 0.800650 0.778610 H
0.473745 0.882070 0.821245 H
0.047040 0.085010 0.687400 H
0.024840 0.157420 0.702335 H
0.126215 0.166640 0.801485 H
0.104850 0.091620 0.743435 H
0.040940 0.745060 0.613390 H
0.188850 0.082520 0.930425 H
0.053190 0.256570 0.778610 H
0.097500 0.260430 0.821245 H
0.355100 0.719270 0.812600 H
0.376375 0.645010 0.797665 H
0.281835 0.649460 0.698515 H
0.302375 0.722830 0.756565 H
0.259135 0.855100 0.886610 H
0.110835 0.516850 0.569575 H
0.349675 0.549170 0.721390 H
0.308965 0.552510 0.678755 H
0.149585 0.356380 0.674910 H
0.151255 0.445000 0.717290 H
0.417505 0.960200 0.745465 H
0.453710 0.002750 0.803870 H
0.458320 0.813670 0.707105 H
0.420810 0.854750 0.690960 H
0.247530 0.768270 0.581590 H
0.416260 0.471670 0.602410 H
0.003285 0.949350 0.825090 H
0.005215 0.867930 0.782710 H
0.605100 0.585010 0.495465 H
0.626375 0.657420 0.053870 H
0.531835 0.666667 0.457105 H
0.552375 0.591620 0.440960 H
0.509135 0.245060 0.331590 H
0.860835 0.582520 0.352410 H
0.599675 0.756570 0.075090 H
0.558965 0.760430 0.032710 H
0.797040 0.219270 0.004535 H
0.774840 0.145010 0.446130 H
0.876215 0.149460 0.042895 H
0.854850 0.222830 0.059040 H
0.790940 0.355100 0.168410 H
0.938850 0.016850 0.147590 H
0.803190 0.049170 0.424910 H
0.847500 0.052510 0.467290 H
0.667505 0.844080 0.437400 H
0.703710 0.799680 0.452335 H
0.708320 0.002430 0.051485 H
0.670810 0.959700 0.493435 H
0.997530 0.831880 0.363390 H
0.666260 0.127700 0.180425 H
0.753285 0.856380 0.028610 H
0.755215 0.945000 0.071245 H
0.984635 0.460200 0.062600 H
0.947505 0.502750 0.047665 H
0.949730 0.313670 0.448515 H
0.986415 0.354750 0.006565 H
0.552550 0.268270 0.136610 H
0.883425 0.971670 0.319575 H
0.899585 0.449350 0.471390 H
0.901255 0.367930 0.428755 H
0.827960 0.164990 0.062600 H
0.850160 0.092580 0.047665 H
0.748785 0.083360 0.448515 H
0.770150 0.158380 0.006565 H
0.834060 0.504940 0.136610 H
0.686150 0.167480 0.319575 H
0.821810 0.993430 0.471390 H
0.777500 0.989570 0.428755 H
0.519900 0.530730 0.437400 H
0.998625 0.604990 0.452335 H
0.593165 0.600540 0.051485 H
0.572625 0.527170 0.493435 H
0.615865 0.394900 0.363390 H
0.764165 0.733150 0.180425 H
0.525325 0.700830 0.028610 H
0.566035 0.697490 0.071245 H
0.640365 0.905920 0.495465 H
0.677495 0.950320 0.053870 H
0.675270 0.747570 0.457105 H
0.638585 0.790300 0.440960 H
0.572450 0.918120 0.331590 H
0.741575 0.622300 0.352410 H
0.725415 0.893620 0.075090 H
0.723745 0.805000 0.032710 H
0.734635 0.344080 0.254535 H
0.697505 0.299680 0.196130 H
0.699730 0.502430 0.292895 H
0.736415 0.459700 0.309040 H
0.802550 0.331880 0.418410 H
0.633425 0.627700 0.397590 H
0.957495 0.289800 0.004535 H
0.921290 0.247250 0.446130 H
0.916680 0.436330 0.042895 H
0.954190 0.395250 0.059040 H
0.627470 0.481730 0.168410 H
0.958740 0.778330 0.147590 H
0.871715 0.300650 0.424910 H
0.869785 0.382070 0.467290 H
0.769900 0.664990 0.254535 H
0.748625 0.592580 0.196130 H
0.843165 0.583360 0.292895 H
0.822625 0.658380 0.309040 H
0.865865 0.004940 0.418410 H
0.514165 0.667480 0.397590 H
0.775325 0.493430 0.174910 H
0.816035 0.489570 0.217290 H
0.577960 0.030730 0.245465 H
0.600160 0.104990 0.303870 H
0.998785 0.100540 0.207105 H
0.520150 0.027170 0.190960 H
0.584060 0.894900 0.081590 H
0.936150 0.233150 0.102410 H
0.571810 0.200830 0.325090 H
0.527500 0.197490 0.282710 H
0.707495 0.405920 0.312600 H
0.671290 0.450320 0.297665 H
0.666667 0.247570 0.198515 H
0.704190 0.290300 0.256565 H
0.877470 0.418120 0.386610 H
0.708740 0.122300 0.069575 H
0.621715 0.393620 0.221390 H
0.619785 0.305000 0.178755 H
0.890365 0.789800 0.187400 H
0.927495 0.747250 0.202335 H
0.925270 0.936330 0.301485 H
0.888585 0.895250 0.243435 H
0.822450 0.981730 0.113390 H
0.991575 0.278330 0.430425 H
0.975415 0.800650 0.278610 H
0.973745 0.882070 0.321245 H
0.547040 0.085010 0.187400 H
0.524840 0.157420 0.202335 H
0.626215 0.166640 0.301485 H
0.604850 0.091620 0.243435 H
0.540940 0.745060 0.113390 H
0.688850 0.082520 0.430425 H
0.553190 0.256570 0.278610 H
0.597500 0.260430 0.321245 H
0.855100 0.719270 0.312600 H
0.876375 0.645010 0.297665 H
0.781835 0.649460 0.198515 H
0.802375 0.722830 0.256565 H
0.759135 0.855100 0.386610 H
0.610835 0.516850 0.069575 H
0.849675 0.549170 0.221390 H
0.808965 0.552510 0.178755 H
0.649585 0.356380 0.174910 H
0.651255 0.445000 0.217290 H
0.917505 0.960200 0.245465 H
0.953710 0.002750 0.303870 H
0.958320 0.813670 0.207105 H
0.920810 0.854750 0.190960 H
0.747530 0.768270 0.081590 H
0.916260 0.471670 0.102410 H
0.503285 0.949350 0.325090 H
0.505215 0.867930 0.282710 H
0.605100 0.585010 0.995465 H
0.626375 0.657420 0.553870 H
0.531835 0.666667 0.957105 H
0.552375 0.591620 0.940960 H
0.509135 0.245060 0.831590 H
0.860835 0.582520 0.852410 H
0.599675 0.756570 0.575090 H
0.558965 0.760430 0.532710 H
0.797040 0.219270 0.504535 H
0.774840 0.145010 0.946130 H
0.876215 0.149460 0.542895 H
0.854850 0.222830 0.559040 H
0.790940 0.355100 0.668410 H
0.938850 0.016850 0.647590 H
0.803190 0.049170 0.924910 H
0.847500 0.052510 0.967290 H
0.667505 0.844080 0.937400 H
0.703710 0.799680 0.952335 H
0.708320 0.002430 0.551485 H
0.670810 0.959700 0.993435 H
0.997530 0.831880 0.863390 H
0.666260 0.127700 0.680425 H
0.753285 0.856380 0.528610 H
0.755215 0.945000 0.571245 H
0.984635 0.460200 0.562600 H
0.947505 0.502750 0.547665 H
0.949730 0.313670 0.948515 H
0.986415 0.354750 0.506565 H
0.552550 0.268270 0.636610 H
0.883425 0.971670 0.819575 H
0.899585 0.449350 0.971390 H
0.901255 0.367930 0.928755 H
0.827960 0.164990 0.562600 H
0.850160 0.092580 0.547665 H
0.748785 0.083360 0.948515 H
0.770150 0.158380 0.506565 H
0.834060 0.504940 0.636610 H
0.686150 0.167480 0.819575 H
0.821810 0.993430 0.971390 H
0.777500 0.989570 0.928755 H
0.519900 0.530730 0.937400 H
0.998625 0.604990 0.952335 H
0.593165 0.600540 0.551485 H
0.572625 0.527170 0.993435 H
0.615865 0.394900 0.863390 H
0.764165 0.733150 0.680425 H
0.525325 0.700830 0.528610 H
0.566035 0.697490 0.571245 H
0.640365 0.905920 0.995465 H
0.677495 0.950320 0.553870 H
0.675270 0.747570 0.957105 H
0.638585 0.790300 0.940960 H
0.572450 0.918120 0.831590 H
0.741575 0.622300 0.852410 H
0.725415 0.893620 0.575090 H
0.723745 0.805000 0.532710 H
0.734635 0.344080 0.754535 H
0.697505 0.299680 0.696130 H
0.699730 0.502430 0.792895 H
0.736415 0.459700 0.809040 H
0.802550 0.331880 0.918410 H
0.633425 0.627700 0.897590 H
0.957495 0.289800 0.504535 H
0.921290 0.247250 0.946130 H
0.916680 0.436330 0.542895 H
0.954190 0.395250 0.559040 H
0.627470 0.481730 0.668410 H
0.958740 0.778330 0.647590 H
0.871715 0.300650 0.924910 H
0.869785 0.382070 0.967290 H
0.769900 0.664990 0.754535 H
0.748625 0.592580 0.696130 H
0.843165 0.583360 0.792895 H
0.822625 0.658380 0.809040 H
0.865865 0.004940 0.918410 H
0.514165 0.667480 0.897590 H
0.775325 0.493430 0.674910 H
0.816035 0.489570 0.717290 H
0.577960 0.030730 0.745465 H
0.600160 0.104990 0.803870 H
0.998785 0.100540 0.707105 H
0.520150 0.027170 0.690960 H
0.584060 0.894900 0.581590 H
0.936150 0.233150 0.602410 H
0.571810 0.200830 0.825090 H
0.527500 0.197490 0.782710 H
0.707495 0.405920 0.812600 H
0.671290 0.450320 0.797665 H
0.666667 0.247570 0.698515 H
0.704190 0.290300 0.756565 H
0.877470 0.418120 0.886610 H
0.708740 0.122300 0.569575 H
0.621715 0.393620 0.721390 H
0.619785 0.305000 0.678755 H
0.890365 0.789800 0.687400 H
0.927495 0.747250 0.702335 H
0.925270 0.936330 0.801485 H
0.888585 0.895250 0.743435 H
0.822450 0.981730 0.613390 H
0.991575 0.278330 0.930425 H
0.975415 0.800650 0.778610 H
0.973745 0.882070 0.821245 H