Zn128 H120 C170 N14 Cl32 O66
1.0
19.580782 0.000000 -15.108107
-4.730059 19.000883 -15.108107
0.000000 0.000000 24.731800
Zn H C N Cl O
128 120 170 14 32 66
direct
0.548910 0.024700 0.996270 Zn
0.548910 0.024700 -0.003730 Zn
0.548910 1.024700 0.996270 Zn
0.548910 1.024700 -0.003730 Zn
-0.451090 0.024700 0.996270 Zn
-0.451090 0.024700 -0.003730 Zn
-0.451090 1.024700 0.996270 Zn
-0.451090 1.024700 -0.003730 Zn
0.028430 0.552640 0.003730 Zn
0.028430 0.552640 1.003730 Zn
0.028430 -0.447360 0.003730 Zn
0.028430 -0.447360 1.003730 Zn
1.028430 0.552640 0.003730 Zn
1.028430 0.552640 1.003730 Zn
1.028430 -0.447360 0.003730 Zn
1.028430 -0.447360 1.003730 Zn
0.302640 0.798910 0.024210 Zn
0.302640 0.798910 1.024210 Zn
0.302640 -0.201090 0.024210 Zn
0.302640 -0.201090 1.024210 Zn
1.302640 0.798910 0.024210 Zn
1.302640 0.798910 1.024210 Zn
1.302640 -0.201090 0.024210 Zn
1.302640 -0.201090 1.024210 Zn
0.774700 0.278430 0.975790 Zn
0.774700 0.278430 -0.024210 Zn
0.774700 1.278430 0.975790 Zn
0.774700 1.278430 -0.024210 Zn
-0.225300 0.278430 0.975790 Zn
-0.225300 0.278430 -0.024210 Zn
-0.225300 1.278430 0.975790 Zn
-0.225300 1.278430 -0.024210 Zn
0.701090 0.197360 0.975790 Zn
0.701090 0.197360 -0.024210 Zn
0.701090 1.197360 0.975790 Zn
0.701090 1.197360 -0.024210 Zn
-0.298910 0.197360 0.975790 Zn
-0.298910 0.197360 -0.024210 Zn
-0.298910 1.197360 0.975790 Zn
-0.298910 1.197360 -0.024210 Zn
0.221570 0.725300 0.024210 Zn
0.221570 0.725300 1.024210 Zn
0.221570 -0.274700 0.024210 Zn
0.221570 -0.274700 1.024210 Zn
1.221570 0.725300 0.024210 Zn
1.221570 0.725300 1.024210 Zn
1.221570 -0.274700 0.024210 Zn
1.221570 -0.274700 1.024210 Zn
0.475300 0.951090 0.003730 Zn
0.475300 0.951090 1.003730 Zn
0.475300 -0.048910 0.003730 Zn
0.475300 -0.048910 1.003730 Zn
1.475300 0.951090 0.003730 Zn
1.475300 0.951090 1.003730 Zn
1.475300 -0.048910 0.003730 Zn
1.475300 -0.048910 1.003730 Zn
0.947360 0.471570 0.996270 Zn
0.947360 0.471570 -0.003730 Zn
0.947360 1.471570 0.996270 Zn
0.947360 1.471570 -0.003730 Zn
-0.052640 0.471570 0.996270 Zn
-0.052640 0.471570 -0.003730 Zn
-0.052640 1.471570 0.996270 Zn
-0.052640 1.471570 -0.003730 Zn
0.721570 0.697360 0.496270 Zn
0.721570 0.697360 1.496270 Zn
0.721570 -0.302640 0.496270 Zn
0.721570 -0.302640 1.496270 Zn
-0.278430 0.697360 0.496270 Zn
-0.278430 0.697360 1.496270 Zn
-0.278430 -0.302640 0.496270 Zn
-0.278430 -0.302640 1.496270 Zn
0.201090 0.225300 0.503730 Zn
0.201090 0.225300 -0.496270 Zn
0.201090 1.225300 0.503730 Zn
0.201090 1.225300 -0.496270 Zn
1.201090 0.225300 0.503730 Zn
1.201090 0.225300 -0.496270 Zn
1.201090 1.225300 0.503730 Zn
1.201090 1.225300 -0.496270 Zn
0.447360 0.451090 0.475790 Zn
0.447360 0.451090 1.475790 Zn
0.447360 1.451090 0.475790 Zn
0.447360 1.451090 1.475790 Zn
1.447360 0.451090 0.475790 Zn
1.447360 0.451090 1.475790 Zn
1.447360 1.451090 0.475790 Zn
1.447360 1.451090 1.475790 Zn
0.975300 0.971570 0.524210 Zn
0.975300 0.971570 -0.475790 Zn
0.975300 -0.028430 0.524210 Zn
0.975300 -0.028430 -0.475790 Zn
-0.024700 0.971570 0.524210 Zn
-0.024700 0.971570 -0.475790 Zn
-0.024700 -0.028430 0.524210 Zn
-0.024700 -0.028430 -0.475790 Zn
0.048910 0.052640 0.524210 Zn
0.048910 0.052640 -0.475790 Zn
0.048910 1.052640 0.524210 Zn
0.048910 1.052640 -0.475790 Zn
1.048910 0.052640 0.524210 Zn
1.048910 0.052640 -0.475790 Zn
1.048910 1.052640 0.524210 Zn
1.048910 1.052640 -0.475790 Zn
0.528430 0.524700 0.475790 Zn
0.528430 0.524700 1.475790 Zn
0.528430 -0.475300 0.475790 Zn
0.528430 -0.475300 1.475790 Zn
-0.471570 0.524700 0.475790 Zn
-0.471570 0.524700 1.475790 Zn
-0.471570 -0.475300 0.475790 Zn
-0.471570 -0.475300 1.475790 Zn
0.274700 0.298910 0.496270 Zn
0.274700 0.298910 1.496270 Zn
0.274700 1.298910 0.496270 Zn
0.274700 1.298910 1.496270 Zn
1.274700 0.298910 0.496270 Zn
1.274700 0.298910 1.496270 Zn
1.274700 1.298910 0.496270 Zn
1.274700 1.298910 1.496270 Zn
0.802640 0.778430 0.503730 Zn
0.802640 0.778430 -0.496270 Zn
0.802640 -0.221570 0.503730 Zn
0.802640 -0.221570 -0.496270 Zn
-0.197360 0.778430 0.503730 Zn
-0.197360 0.778430 -0.496270 Zn
-0.197360 -0.221570 0.503730 Zn
-0.197360 -0.221570 -0.496270 Zn
0.891653 0.937191 0.532681 H
0.894992 0.867298 0.460615 H
0.845490 0.812809 0.454462 H
0.843317 0.882702 0.527694 H
0.210200 0.585010 0.990930 H
0.252750 0.657420 0.107740 H
0.063670 0.666667 0.914210 H
0.104750 0.591620 0.881920 H
0.018270 0.245060 0.663180 H
0.721670 0.582520 0.704820 H
0.199350 0.756570 0.150180 H
0.117930 0.760430 0.065420 H
0.594080 0.219270 0.009070 H
0.549680 0.145010 0.892260 H
0.752430 0.149460 0.085790 H
0.709700 0.222830 0.118080 H
0.581880 0.355100 0.336820 H
0.877700 0.016850 0.295180 H
0.606380 0.049170 0.849820 H
0.695000 0.052510 0.934580 H
0.335010 0.844080 0.874800 H
0.407420 0.799680 0.904670 H
0.416640 0.002430 0.102970 H
0.341620 0.959700 0.986870 H
0.995060 0.831880 0.726780 H
0.332520 0.127700 0.360850 H
0.506570 0.856380 0.057220 H
0.510430 0.945000 0.142490 H
0.969270 0.460200 0.125200 H
0.895010 0.502750 0.095330 H
0.899460 0.313670 0.897030 H
0.972830 0.354750 0.013130 H
0.105100 0.268270 0.273220 H
0.766850 0.971670 0.639150 H
0.799170 0.449350 0.942780 H
0.802510 0.367930 0.857510 H
0.655920 0.164990 0.125200 H
0.700320 0.092580 0.095330 H
0.497570 0.083360 0.897030 H
0.540300 0.158380 0.013130 H
0.668120 0.504940 0.273220 H
0.372300 0.167480 0.639150 H
0.643620 0.993430 0.942780 H
0.555000 0.989570 0.857510 H
0.039800 0.530730 0.874800 H
0.997250 0.604990 0.904670 H
0.186330 0.600540 0.102970 H
0.145250 0.527170 0.986870 H
0.231730 0.394900 0.726780 H
0.528330 0.733150 0.360850 H
0.050650 0.700830 0.057220 H
0.132070 0.697490 0.142490 H
0.280730 0.905920 0.990930 H
0.354990 0.950320 0.107740 H
0.350540 0.747570 0.914210 H
0.277170 0.790300 0.881920 H
0.144900 0.918120 0.663180 H
0.483150 0.622300 0.704820 H
0.450830 0.893620 0.150180 H
0.447490 0.805000 0.065420 H
0.469270 0.344080 0.509070 H
0.395010 0.299680 0.392260 H
0.399460 0.502430 0.585790 H
0.472830 0.459700 0.618080 H
0.605100 0.331880 0.836820 H
0.266850 0.627700 0.795180 H
0.914990 0.289800 0.009070 H
0.842580 0.247250 0.892260 H
0.833360 0.436330 0.085790 H
0.908380 0.395250 0.118080 H
0.254940 0.481730 0.336820 H
0.917480 0.778330 0.295180 H
0.743430 0.300650 0.849820 H
0.739570 0.382070 0.934580 H
0.539800 0.664990 0.509070 H
0.497250 0.592580 0.392260 H
0.686330 0.583360 0.585790 H
0.645250 0.658380 0.618080 H
0.731730 0.004940 0.836820 H
0.028330 0.667480 0.795180 H
0.550650 0.493430 0.349820 H
0.632070 0.489570 0.434580 H
0.155920 0.030730 0.490930 H
0.200320 0.104990 0.607740 H
0.997570 0.100540 0.414210 H
0.040300 0.027170 0.381920 H
0.168120 0.894900 0.163180 H
0.872300 0.233150 0.204820 H
0.143620 0.200830 0.650180 H
0.055000 0.197490 0.565420 H
0.414990 0.405920 0.625200 H
0.342580 0.450320 0.595330 H
0.333333 0.247570 0.397030 H
0.408380 0.290300 0.513130 H
0.754940 0.418120 0.773220 H
0.417480 0.122300 0.139150 H
0.243430 0.393620 0.442780 H
0.239570 0.305000 0.357510 H
0.644900 0.981730 0.226780 H
0.983150 0.278330 0.860850 H
0.094080 0.085010 0.374800 H
0.049680 0.157420 0.404670 H
0.252430 0.166640 0.602970 H
0.209700 0.091620 0.486870 H
0.081880 0.745060 0.226780 H
0.377700 0.082520 0.860850 H
0.106380 0.256570 0.557220 H
0.195000 0.260430 0.642490 H
0.710200 0.719270 0.625200 H
0.752750 0.645010 0.595330 H
0.563670 0.649460 0.397030 H
0.604750 0.722830 0.513130 H
0.518270 0.855100 0.773220 H
0.221670 0.516850 0.139150 H
0.699350 0.549170 0.442780 H
0.617930 0.552510 0.357510 H
0.299170 0.356380 0.349820 H
0.302510 0.445000 0.434580 H
0.495060 0.768270 0.163180 H
0.832520 0.471670 0.204820 H
0.671270 0.491170 0.667700 C
0.804250 0.509150 0.809500 C
0.873250 0.512550 0.882100 C
0.602380 0.486880 0.595100 C
0.200260 0.625160 0.039900 C
0.094000 0.630400 0.930400 C
0.010200 0.252800 0.708000 C
0.728200 0.544800 0.719400 C
0.792840 0.552940 0.788500 C
0.005530 0.317430 0.763700 C
0.147500 0.724000 0.081700 C
0.823470 0.003570 0.332300 C
0.699650 0.994750 0.190500 C
0.630450 0.991150 0.117900 C
0.891780 0.007280 0.404900 C
0.585260 0.160360 0.960100 C
0.700000 0.163600 0.069600 C
0.544800 0.302200 0.292000 C
0.825400 0.008800 0.280600 C
0.764440 0.004340 0.211500 C
0.553730 0.241830 0.236300 C
0.642300 0.065800 0.918300 C
0.241170 0.073470 0.319900 C
0.259150 0.949650 0.204900 C
0.262550 0.880450 0.139300 C
0.236880 0.141780 0.384500 C
0.375160 0.835260 0.924900 C
0.380400 0.950000 0.036400 C
0.002800 0.794800 0.742600 C
0.294800 0.075400 0.316600 C
0.302940 0.014440 0.260100 C
0.067430 0.803730 0.811900 C
0.474000 0.892300 0.076500 C
0.753570 0.921270 0.680100 C
0.744750 0.054250 0.795100 C
0.741150 0.123250 0.860700 C
0.757280 0.852380 0.615500 C
0.910360 0.450260 0.075100 C
0.913600 0.344000 0.963600 C
0.052200 0.260200 0.257400 C
0.758800 0.978200 0.683400 C
0.754340 0.042840 0.739900 C
0.991830 0.255530 0.188100 C
0.815800 0.397500 0.923500 C
0.182570 0.494470 0.236300 C
0.776000 0.352500 0.918300 C
0.426530 0.258830 0.680100 C
0.550350 0.240850 0.795100 C
0.619550 0.237450 0.860700 C
0.358220 0.263120 0.615500 C
0.664740 0.124840 0.075100 C
0.550000 0.119600 0.963600 C
0.705200 0.497200 0.257400 C
0.424600 0.205200 0.683400 C
0.485560 0.197060 0.739900 C
0.696270 0.432570 0.188100 C
0.607700 0.026000 0.923500 C
0.578730 0.746430 0.319900 C
0.445750 0.755250 0.204900 C
0.376750 0.758850 0.139300 C
0.647620 0.742720 0.384500 C
0.049740 0.589640 0.924900 C
0.156000 0.586400 0.036400 C
0.239800 0.447800 0.742600 C
0.521800 0.741200 0.316600 C
0.457160 0.745660 0.260100 C
0.244470 0.508170 0.811900 C
0.102500 0.684200 0.076500 C
0.496430 0.676530 0.667700 C
0.505250 0.800350 0.809500 C
0.508850 0.869550 0.882100 C
0.492720 0.608220 0.595100 C
0.339640 0.914740 0.039900 C
0.336400 0.800000 0.930400 C
0.197800 0.955200 0.708000 C
0.491200 0.674600 0.719400 C
0.495660 0.735560 0.788500 C
0.258170 0.946270 0.763700 C
0.434200 0.857700 0.081700 C
0.008830 0.828730 0.332300 C
0.990850 0.695750 0.190500 C
0.987450 0.626750 0.117900 C
0.013120 0.897620 0.404900 C
0.874840 0.299740 0.960100 C
0.869600 0.406000 0.069600 C
0.247200 0.489800 0.292000 C
0.955200 0.771800 0.280600 C
0.947060 0.707160 0.211500 C
0.078730 0.758830 0.832300 C
0.945750 0.740850 0.690500 C
0.876750 0.737450 0.617900 C
0.147620 0.763120 0.904900 C
0.549740 0.624840 0.460100 C
0.656000 0.619600 0.569600 C
0.739800 0.997200 0.792000 C
0.021800 0.705200 0.780600 C
0.957160 0.697060 0.711500 C
0.744470 0.932570 0.736300 C
0.602500 0.526000 0.418300 C
0.926530 0.246430 0.167700 C
0.050350 0.255250 0.309500 C
0.119550 0.258850 0.382100 C
0.858220 0.242720 0.095100 C
0.164740 0.089640 0.539900 C
0.050000 0.086400 0.430400 C
0.205200 0.947800 0.208000 C
0.924600 0.241200 0.219400 C
0.985560 0.245660 0.288500 C
0.196270 0.008170 0.263700 C
0.107700 0.184200 0.581700 C
0.508830 0.176530 0.180100 C
0.490850 0.300350 0.295100 C
0.487450 0.369550 0.360700 C
0.513120 0.108220 0.115500 C
0.374840 0.414740 0.575100 C
0.369600 0.300000 0.463600 C
0.747200 0.455200 0.757400 C
0.455200 0.174600 0.183400 C
0.447060 0.235560 0.239900 C
0.682570 0.446270 0.688100 C
0.276000 0.357700 0.423500 C
0.996430 0.328730 0.819900 C
0.005250 0.195750 0.704900 C
0.008850 0.126750 0.639300 C
0.992720 0.397620 0.884500 C
0.697800 0.989800 0.242600 C
0.991200 0.271800 0.816600 C
0.995660 0.207160 0.760100 C
0.758170 0.994470 0.311900 C
0.323470 0.991170 0.819900 C
0.199650 0.009150 0.704900 C
0.130450 0.012550 0.639300 C
0.391780 0.986880 0.884500 C
0.085260 0.125160 0.424900 C
0.200000 0.130400 0.536400 C
0.044800 0.752800 0.242600 C
0.325400 0.044800 0.816600 C
0.264440 0.052940 0.760100 C
0.053730 0.817430 0.311900 C
0.142300 0.224000 0.576500 C
0.171270 0.503570 0.180100 C
0.304250 0.494750 0.295100 C
0.373250 0.491150 0.360700 C
0.102380 0.507280 0.115500 C
0.700260 0.660360 0.575100 C
0.594000 0.663600 0.463600 C
0.510200 0.802200 0.757400 C
0.228200 0.508800 0.183400 C
0.292840 0.504340 0.239900 C
0.505530 0.741830 0.688100 C
0.647500 0.565800 0.423500 C
0.253570 0.573470 0.832300 C
0.244750 0.449650 0.690500 C
0.241150 0.380450 0.617900 C
0.257280 0.641780 0.904900 C
0.410360 0.335260 0.460100 C
0.413600 0.450000 0.569600 C
0.552200 0.294800 0.792000 C
0.258800 0.575400 0.780600 C
0.254340 0.514440 0.711500 C
0.491830 0.303730 0.736300 C
0.315800 0.392300 0.418300 C
0.741170 0.421270 0.167700 C
0.759150 0.554250 0.309500 C
0.762550 0.623250 0.382100 C
0.736880 0.352380 0.095100 C
0.502800 0.760200 0.208000 C
0.794800 0.478200 0.219400 C
0.802940 0.542840 0.288500 C
0.567430 0.755530 0.263700 C
0.162240 0.673140 0.018900 N
0.654240 0.143340 0.981100 N
0.423140 0.904240 0.010900 N
0.893340 0.412240 0.989100 N
0.826860 0.337760 0.981100 N
0.595760 0.076860 0.989100 N
0.087760 0.606660 0.010900 N
0.356660 0.845760 0.018900 N
0.587760 0.576860 0.481100 N
0.095760 0.106660 0.518900 N
0.326860 0.345760 0.489100 N
0.154240 0.173140 0.510900 N
0.662240 0.643340 0.489100 N
0.393340 0.404240 0.481100 N
0.990820 0.140680 0.765080 Cl
0.011020 0.383730 0.760010 Cl
0.375600 0.225740 0.234920 Cl
0.623720 0.251010 0.239990 Cl
0.890680 0.625600 0.649860 Cl
0.133730 0.873720 0.872710 Cl
0.975740 0.240820 0.350140 Cl
0.001010 0.261020 0.127290 Cl
0.874400 0.609320 0.350140 Cl
0.626280 0.366270 0.127290 Cl
0.374400 0.024260 0.265080 Cl
0.126280 0.998990 0.260010 Cl
0.259180 0.524260 0.649860 Cl
0.238980 0.498990 0.872710 Cl
0.274260 0.124400 0.765080 Cl
0.248990 0.876280 0.760010 Cl
0.359320 0.509180 0.234920 Cl
0.116270 0.488980 0.239990 Cl
0.759180 0.109320 0.734920 Cl
0.738980 0.866270 0.739990 Cl
0.859320 0.624400 0.850140 Cl
0.616270 0.376280 0.627290 Cl
0.774260 0.009180 0.149860 Cl
0.748990 0.988980 0.372710 Cl
0.875600 0.640680 0.149860 Cl
0.123720 0.883730 0.372710 Cl
0.490820 0.725740 0.850140 Cl
0.511020 0.751010 0.627290 Cl
0.475740 0.125600 0.734920 Cl
0.501010 0.373720 0.739990 Cl
0.390680 0.740820 0.265080 Cl
0.633730 0.761020 0.260010 Cl
0.921126 0.909949 0.518695 O
0.858746 0.840051 0.511177 O
0.869350 0.495650 0.917900 O
0.928400 0.530800 0.898800 O
0.547160 0.471560 0.580000 O
0.949630 0.394530 0.894700 O
0.577750 0.951450 0.082100 O
0.632000 0.029600 0.101200 O
0.891560 0.967160 0.420000 O
0.499830 0.054930 0.105300 O
0.245650 0.827750 0.126300 O
0.280800 0.882000 0.102400 O
0.221560 0.141560 0.424400 O
0.144530 0.749830 0.944900 O
0.701450 0.119350 0.873700 O
0.779600 0.178400 0.897600 O
0.717160 0.797160 0.575600 O
0.804930 0.199630 0.055100 O
0.672250 0.254350 0.873700 O
0.618000 0.219200 0.897600 O
0.358440 0.278440 0.575600 O
0.750170 0.355470 0.055100 O
0.172250 0.298550 0.417900 O
0.118000 0.220400 0.398800 O
0.380650 0.798550 0.126300 O
0.321600 0.720400 0.102400 O
0.702840 0.782840 0.424400 O
0.300370 0.695070 0.944900 O
0.548550 0.922250 0.917900 O
0.470400 0.868000 0.898800 O
0.532840 0.608440 0.580000 O
0.445070 0.000170 0.894700 O
0.004350 0.630650 0.082100 O
0.969200 0.571600 0.101200 O
0.028440 0.952840 0.420000 O
0.105470 0.550370 0.105300 O
0.880650 0.754350 0.582100 O
0.821600 0.719200 0.601200 O
0.202840 0.778440 0.920000 O
0.800370 0.855470 0.605300 O
0.858440 0.282840 0.080000 O
0.250170 0.195070 0.394700 O
0.504350 0.422250 0.373700 O
0.469200 0.368000 0.397600 O
0.528440 0.108440 0.075600 O
0.605470 0.500170 0.555100 O
0.048550 0.130650 0.626300 O
0.970400 0.071600 0.602400 O
0.032840 0.452840 0.924400 O
0.945070 0.050370 0.444900 O
0.077750 0.995650 0.626300 O
0.132000 0.030800 0.602400 O
0.391560 0.971560 0.924400 O
0.999830 0.894530 0.444900 O
0.369350 0.451450 0.373700 O
0.428400 0.529600 0.397600 O
0.047160 0.467160 0.075600 O
0.449630 0.554930 0.555100 O
0.201450 0.327750 0.582100 O
0.279600 0.382000 0.601200 O
0.217160 0.641560 0.920000 O
0.304930 0.249830 0.605300 O
0.745650 0.619350 0.417900 O
0.780800 0.678400 0.398800 O
0.721560 0.297160 0.080000 O
0.644530 0.699630 0.394700 O
